NAME          ClpDefau
ROWS
 N  OBJROW
 L  R_176_0
 L  R_176_1
 L  R_176_2
 L  R_176_3
 L  R_176_4
 L  R_176_5
 L  R_176_6
 L  R_176_7
 L  R_176_8
 L  R_176_9
 L  R_176_10
 L  R_176_11
 L  R_176_12
 L  R_176_13
 L  R_176_14
 L  R_176_15
COLUMNS
    x_0       OBJROW     -8.           R_176_0   4.          
    x_0       R_176_1   10.            R_176_2   7.          
    x_0       R_176_3   9.             R_176_5   8.          
    x_0       R_176_6   1.             R_176_8   6.          
    x_0       R_176_10  9.             R_176_11  3.          
    x_0       R_176_12  1.             R_176_13  3.          
    x_0       R_176_14  9.             R_176_15  9.          
    x_1       OBJROW     -12.          R_176_0   3.          
    x_1       R_176_2   7.             R_176_3   6.          
    x_1       R_176_4   6.             R_176_5   8.          
    x_1       R_176_6   7.             R_176_7   8.          
    x_1       R_176_8   4.             R_176_9   8.          
    x_1       R_176_10  6.             R_176_11  8.          
    x_1       R_176_13  10.            R_176_14  9.          
    x_1       R_176_15  8.          
    x_2       OBJROW     -11.          R_176_0   6.          
    x_2       R_176_4   8.             R_176_5   9.          
    x_2       R_176_6   9.             R_176_7   10.         
    x_2       R_176_8   4.             R_176_9   6.          
    x_2       R_176_11  2.             R_176_12  6.          
    x_2       R_176_13  4.             R_176_15  10.         
    x_3       OBJROW     -47.          R_176_0   5.          
    x_3       R_176_1   2.             R_176_2   3.          
    x_3       R_176_4   4.             R_176_6   1.          
    x_3       R_176_7   6.             R_176_8   1.          
    x_3       R_176_9   2.             R_176_10  1.          
    x_3       R_176_11  3.             R_176_13  3.          
    x_3       R_176_14  1.             R_176_15  1.          
    x_4       OBJROW     -22.          R_176_0   4.          
    x_4       R_176_1   1.             R_176_2   10.         
    x_4       R_176_3   2.             R_176_4   8.          
    x_4       R_176_5   8.             R_176_6   10.         
    x_4       R_176_7   5.             R_176_8   10.         
    x_4       R_176_9   8.             R_176_11  6.          
    x_4       R_176_13  3.             R_176_14  7.          
    x_4       R_176_15  6.          
    x_5       OBJROW     -95.          R_176_0   6.          
    x_5       R_176_1   10.            R_176_3   9.          
    x_5       R_176_5   5.             R_176_6   3.          
    x_5       R_176_7   8.             R_176_8   9.          
    x_5       R_176_10  1.             R_176_12  8.          
    x_5       R_176_13  2.             R_176_14  10.         
    x_5       R_176_15  10.         
    x_6       OBJROW     -86.          R_176_0   5.          
    x_6       R_176_1   5.             R_176_2   1.          
    x_6       R_176_3   7.             R_176_4   2.          
    x_6       R_176_5   2.             R_176_6   2.          
    x_6       R_176_7   4.             R_176_8   1.          
    x_6       R_176_9   8.             R_176_10  9.          
    x_6       R_176_11  4.             R_176_12  4.          
    x_6       R_176_13  7.             R_176_14  1.          
    x_6       R_176_15  1.          
    x_7       OBJROW     -40.          R_176_2   2.          
    x_7       R_176_3   8.             R_176_4   9.          
    x_7       R_176_6   6.             R_176_7   6.          
    x_7       R_176_8   7.             R_176_9   5.          
    x_7       R_176_10  1.             R_176_12  8.          
    x_7       R_176_13  10.            R_176_14  1.          
    x_7       R_176_15  6.          
RHS
    RHS       R_176_0   27.            R_176_1   12.         
    RHS       R_176_2   22.            R_176_3   39.         
    RHS       R_176_4   20.            R_176_5   15.         
    RHS       R_176_6   31.            R_176_7   33.         
    RHS       R_176_8   37.            R_176_9   16.         
    RHS       R_176_10  30.            R_176_11  33.         
    RHS       R_176_12  15.            R_176_13  24.         
    RHS       R_176_14  15.            R_176_15  15.         
BOUNDS
 UI BOUND     x_0       100.        
 UI BOUND     x_1       100.        
 UI BOUND     x_2       100.        
 UI BOUND     x_3       100.        
 UI BOUND     x_4       100.        
 UI BOUND     x_5       100.        
 UI BOUND     x_6       100.        
 UI BOUND     x_7       100.        
ENDATA
